p tw 957 1066
1 99
1 818
2 100
2 819
3 101
3 820
4 102
4 821
5 71
5 822
6 72
6 823
7 103
7 824
8 79
8 825
9 80
9 826
10 104
10 827
11 105
11 828
12 106
12 829
13 93
13 830
14 94
14 831
15 107
15 832
16 108
16 833
17 81
17 834
18 82
18 835
19 109
19 836
20 110
20 837
21 111
21 838
22 112
22 839
23 113
23 840
24 73
24 841
25 74
25 842
26 114
26 843
27 115
27 844
28 87
28 845
29 88
29 846
30 116
30 847
31 117
31 848
32 75
32 849
33 76
33 850
34 118
34 851
35 119
35 852
36 91
36 853
37 92
37 854
38 120
38 855
39 121
39 856
40 122
40 857
41 123
41 858
42 124
42 859
43 125
43 860
44 89
44 861
45 90
45 862
46 126
46 863
47 127
47 864
48 77
48 865
49 78
49 866
50 128
50 867
51 85
51 868
52 86
52 869
53 129
53 870
54 130
54 871
55 95
55 872
56 96
56 873
57 131
57 874
58 132
58 875
59 133
59 876
60 97
60 877
61 98
61 878
62 134
62 879
63 135
63 880
64 136
64 881
65 137
65 882
66 138
66 883
67 83
67 884
68 84
68 885
69 139
69 886
70 140
70 887
71 72
71 143
72 171
73 74
73 175
74 148
75 76
75 145
76 177
77 78
77 154
78 180
79 80
79 160
80 172
81 82
81 174
82 149
83 84
83 151
84 184
85 86
85 181
86 141
87 88
87 176
88 156
89 90
89 168
90 179
91 92
91 161
92 178
93 94
93 173
94 163
95 96
95 182
96 165
97 98
97 183
98 158
99 201
100 202
101 159
102 316
103 258
104 144
105 242
106 415
107 210
108 147
109 192
110 155
111 207
112 208
113 164
114 188
115 150
116 198
117 368
118 167
119 322
120 153
121 312
122 169
123 195
124 146
125 266
126 162
127 250
128 170
129 186
130 157
131 212
132 249
133 142
134 214
135 166
136 367
137 265
138 318
139 203
140 152
141 142
141 185
142 237
143 144
143 218
144 200
145 146
145 229
146 196
147 148
147 222
148 187
149 150
149 191
150 227
151 152
151 240
152 204
153 154
153 206
154 233
155 156
155 224
156 197
157 158
157 235
158 213
159 160
159 217
160 220
161 162
161 230
162 216
163 164
163 209
164 225
165 166
165 211
166 239
167 168
167 190
168 232
169 170
169 231
170 194
171 219
172 199
173 221
174 223
175 226
176 228
177 189
178 205
179 215
180 193
181 234
182 236
183 238
184 241
185 186
185 267
186 292
187 188
187 281
188 246
189 190
189 284
190 245
191 192
191 243
192 277
193 194
193 248
194 291
195 196
195 286
196 287
197 198
197 283
198 254
199 200
199 256
200 275
201 202
201 272
202 260
203 204
203 297
204 298
205 206
205 285
206 253
207 208
207 279
208 262
209 210
209 259
210 276
211 212
211 251
212 293
213 214
213 295
214 270
215 216
215 268
216 289
217 273
218 261
219 358
220 274
221 382
222 257
223 370
224 278
225 280
226 244
227 282
228 252
229 263
230 247
231 255
232 288
233 290
234 496
235 269
236 384
237 294
238 264
239 296
240 271
241 472
242 243
242 300
243 333
244 245
244 335
245 321
246 247
246 303
247 342
248 249
248 347
249 306
250 251
250 314
251 350
252 253
252 337
253 311
254 255
254 339
255 344
256 257
256 331
257 302
258 259
258 330
259 332
260 261
260 328
261 329
262 263
262 319
263 340
264 265
264 351
265 317
266 267
266 324
267 349
268 269
268 346
269 310
270 271
270 325
271 353
272 327
273 315
274 433
275 299
276 301
277 307
278 308
279 334
280 320
281 336
282 304
283 338
284 341
285 343
286 345
287 323
288 441
289 313
290 427
291 348
292 309
293 305
294 434
295 352
296 326
297 354
298 355
299 300
299 390
300 359
301 302
301 360
302 392
303 304
303 371
304 396
305 306
305 366
306 408
307 308
307 372
308 394
309 310
309 374
310 406
311 312
311 401
312 356
313 314
313 404
314 379
315 316
315 387
316 362
317 318
317 410
318 376
319 320
319 383
320 395
321 322
321 399
322 380
323 324
323 403
324 365
325 326
325 385
326 409
327 485
328 386
329 388
330 389
331 363
332 391
333 393
334 487
335 361
336 469
337 373
338 479
339 397
340 398
341 364
342 400
343 378
344 402
345 369
346 381
347 357
348 607
349 405
350 407
351 375
352 493
353 411
354 377
355 589
356 357
356 412
357 460
358 359
358 443
359 414
360 361
360 447
361 439
362 363
362 418
363 444
364 365
364 452
365 440
366 367
366 462
367 417
368 369
368 422
369 456
370 371
370 421
371 451
372 373
372 448
373 425
374 375
374 461
375 435
376 377
376 430
377 466
378 379
378 454
379 426
380 381
380 436
381 458
382 383
382 446
383 450
384 385
384 429
385 464
386 651
387 442
388 419
389 432
390 445
391 546
392 420
393 534
394 449
395 438
396 424
397 647
398 423
399 453
400 437
401 455
402 413
403 457
404 459
405 538
406 428
407 548
408 463
409 416
410 465
411 431
412 413
412 480
413 510
414 415
414 501
415 489
416 417
416 471
417 520
418 419
418 486
419 497
420 421
420 503
421 468
422 423
422 488
423 508
424 425
424 475
425 507
426 427
426 514
427 473
428 429
428 516
429 482
430 431
430 494
431 521
432 433
432 499
433 477
434 435
434 517
435 518
436 437
436 470
437 509
438 439
438 491
439 505
440 441
440 512
441 483
442 596
443 498
444 500
445 467
446 502
447 478
448 490
449 592
450 504
451 506
452 492
453 604
454 476
455 590
456 511
457 495
458 513
459 481
460 515
461 484
462 474
463 698
464 519
465 714
466 522
467 468
467 554
468 533
469 470
469 526
470 564
471 472
471 575
472 536
473 474
473 529
474 573
475 476
475 562
476 544
477 478
477 531
478 557
479 480
479 540
480 565
481 482
481 569
482 547
483 484
483 541
484 571
485 486
485 551
486 552
487 488
487 560
488 563
489 490
489 556
490 559
491 492
491 561
492 528
493 494
493 550
494 577
495 496
495 567
496 537
497 523
498 524
499 553
500 532
501 555
502 545
503 558
504 657
505 525
506 637
507 539
508 527
509 543
510 566
511 644
512 568
513 542
514 570
515 530
516 572
517 574
518 549
519 663
520 576
521 535
522 652
523 524
523 580
524 610
525 526
525 618
526 585
527 528
527 582
528 621
529 530
529 591
530 626
531 532
531 597
532 611
533 534
533 615
534 586
535 536
535 588
536 633
537 538
537 627
538 578
539 540
539 619
540 593
541 542
541 605
542 625
543 544
543 598
544 623
545 546
545 613
546 600
547 548
547 629
548 602
549 550
549 631
550 595
551 608
552 609
553 707
554 581
555 691
556 612
557 614
558 584
559 616
560 617
561 601
562 587
563 620
564 622
565 624
566 606
567 583
568 715
569 599
570 699
571 628
572 594
573 630
574 579
575 603
576 811
577 632
578 579
578 634
579 686
580 581
580 667
581 649
582 583
582 678
583 645
584 585
584 671
585 636
586 587
586 640
587 676
588 589
588 689
589 653
590 591
590 655
591 682
592 593
592 673
593 646
594 595
594 684
595 662
596 597
596 666
597 669
598 599
598 679
599 665
600 601
600 658
601 674
602 603
602 660
603 688
604 605
604 639
605 681
606 607
606 680
607 643
608 650
609 751
610 668
611 648
612 759
613 670
614 659
615 672
616 641
617 656
618 675
619 677
620 778
621 638
622 782
623 654
624 786
625 664
626 642
627 683
628 635
629 685
630 661
631 687
632 813
633 690
634 635
634 716
635 741
636 637
636 730
637 695
638 639
638 733
639 694
640 641
640 692
641 726
642 643
642 697
643 740
644 645
644 735
645 736
646 647
646 732
647 703
648 649
648 705
649 724
650 651
650 721
651 709
652 653
652 746
653 747
654 655
654 734
655 702
656 657
656 728
657 711
658 659
658 708
659 725
660 661
660 700
661 742
662 663
662 744
663 719
664 665
664 717
665 738
666 722
667 710
668 753
669 723
670 760
671 706
672 764
673 727
674 729
675 693
676 731
677 701
678 712
679 696
680 704
681 737
682 739
683 798
684 718
685 802
686 743
687 713
688 745
689 720
690 815
691 692
691 758
692 765
693 694
693 771
694 781
695 696
695 773
696 783
697 698
697 796
698 805
699 700
699 794
700 803
701 702
701 775
702 785
703 704
703 777
704 787
705 706
705 756
706 763
707 708
707 754
708 761
709 710
709 749
710 752
711 712
711 769
712 779
713 714
713 807
714 812
715 716
715 790
716 799
717 718
717 792
718 801
719 720
719 809
720 814
721 748
722 750
723 755
724 757
725 762
726 766
727 767
728 768
729 770
730 772
731 774
732 776
733 780
734 784
735 788
736 789
737 791
738 793
739 795
740 797
741 800
742 804
743 806
744 808
745 810
746 816
747 817
748 888
749 889
750 890
751 891
752 892
753 893
754 894
755 895
756 896
757 897
758 898
759 899
760 900
761 901
762 902
763 903
764 904
765 905
766 906
767 907
768 908
769 909
770 910
771 911
772 912
773 913
774 914
775 915
776 916
777 917
778 918
779 919
780 920
781 921
782 922
783 923
784 924
785 925
786 926
787 927
788 928
789 929
790 930
791 931
792 932
793 933
794 934
795 935
796 936
797 937
798 938
799 939
800 940
801 941
802 942
803 943
804 944
805 945
806 946
807 947
808 948
809 949
810 950
811 951
812 952
813 953
814 954
815 955
816 956
817 957
